ALGO = Normal
EDIFF = 5e-05
ENCUT = 520
IBRION = -1
ISIF = 3
ISMEAR = 0
ISPIN = 1
ISTART = 1
LAECHG = False
LASPH = True
LCHARG = True
LORBIT = 11
LREAL = False
LUNK_FMTED = True
LVHAR = True
LWANNIER90 = True
LWAVE = False
LWRITE_UNK = True
MAGMOM = 2*0.6
NBANDS = 32
NEDOS = 2000
NELM = 100
NSW = 0
PREC = Accurate
SIGMA = 0.05
