
num_wann = 8
exclude_bands = 9-32

Begin Projections
Si: l=0;l=1
End Projections

dis_win_max = 16
dis_num_iter=120

num_iter = 50
num_print_cycles = 10

!hr_plot = true
!write_xyz = true
!Translate_home_cell = false
wannier_plot = true
wannier_plot_supercell = 7
wannier_plot_format = xcrysden

begin unit_cell_cart
     0.0000000     2.7343640     2.7343640
     2.7343640     0.0000000     2.7343640
     2.7343640     2.7343640     0.0000000
end unit_cell_cart

begin atoms_cart
Si       1.3671820     1.3671820     1.3671820
Si       0.0000000     0.0000000     0.0000000
end atoms_cart

mp_grid =     7     7     7

begin kpoints
      0.000000000000      0.000000000000      0.000000000000
      0.142857142857      0.000000000000      0.000000000000
      0.285714285714      0.000000000000      0.000000000000
      0.428571428571      0.000000000000      0.000000000000
      0.142857142857      0.142857142857      0.000000000000
      0.285714285714      0.142857142857      0.000000000000
      0.428571428571      0.142857142857      0.000000000000
     -0.428571428571      0.142857142857      0.000000000000
     -0.285714285714      0.142857142857      0.000000000000
     -0.142857142857      0.142857142857      0.000000000000
      0.285714285714      0.285714285714      0.000000000000
      0.428571428571      0.285714285714      0.000000000000
     -0.428571428571      0.285714285714      0.000000000000
     -0.285714285714      0.285714285714      0.000000000000
      0.428571428571      0.428571428571      0.000000000000
     -0.428571428571      0.428571428571      0.000000000000
      0.428571428571      0.285714285714      0.142857142857
     -0.428571428571      0.285714285714      0.142857142857
     -0.428571428571      0.428571428571      0.142857142857
     -0.285714285714      0.428571428571      0.142857142857
      0.000000000000      0.142857142857      0.000000000000
      0.000000000000      0.000000000000      0.142857142857
     -0.142857142857     -0.142857142857     -0.142857142857
     -0.142857142857      0.000000000000      0.000000000000
      0.000000000000     -0.142857142857      0.000000000000
      0.000000000000      0.000000000000     -0.142857142857
      0.142857142857      0.142857142857      0.142857142857
      0.000000000000      0.285714285714      0.000000000000
      0.000000000000      0.000000000000      0.285714285714
     -0.285714285714     -0.285714285714     -0.285714285714
     -0.285714285714      0.000000000000      0.000000000000
      0.000000000000     -0.285714285714      0.000000000000
      0.000000000000      0.000000000000     -0.285714285714
      0.285714285714      0.285714285714      0.285714285714
      0.000000000000      0.428571428571      0.000000000000
      0.000000000000      0.000000000000      0.428571428571
     -0.428571428571     -0.428571428571     -0.428571428571
     -0.428571428571      0.000000000000      0.000000000000
      0.000000000000     -0.428571428571      0.000000000000
      0.000000000000      0.000000000000     -0.428571428571
      0.428571428571      0.428571428571      0.428571428571
      0.000000000000      0.142857142857      0.142857142857
      0.142857142857      0.000000000000      0.142857142857
     -0.142857142857     -0.142857142857      0.000000000000
     -0.142857142857      0.000000000000     -0.142857142857
      0.000000000000     -0.142857142857     -0.142857142857
      0.000000000000      0.285714285714      0.142857142857
      0.142857142857      0.000000000000      0.285714285714
     -0.142857142857     -0.142857142857      0.142857142857
     -0.285714285714     -0.142857142857     -0.285714285714
      0.142857142857      0.285714285714      0.000000000000
      0.142857142857     -0.142857142857     -0.142857142857
     -0.285714285714     -0.285714285714     -0.142857142857
      0.000000000000      0.142857142857      0.285714285714
     -0.142857142857      0.142857142857     -0.142857142857
     -0.142857142857     -0.285714285714     -0.285714285714
      0.285714285714      0.000000000000      0.142857142857
     -0.285714285714     -0.142857142857      0.000000000000
      0.000000000000     -0.285714285714     -0.142857142857
     -0.142857142857      0.000000000000     -0.285714285714
      0.142857142857      0.142857142857     -0.142857142857
      0.285714285714      0.142857142857      0.285714285714
     -0.142857142857     -0.285714285714      0.000000000000
     -0.142857142857      0.142857142857      0.142857142857
      0.285714285714      0.285714285714      0.142857142857
      0.000000000000     -0.142857142857     -0.285714285714
      0.142857142857     -0.142857142857      0.142857142857
      0.142857142857      0.285714285714      0.285714285714
     -0.285714285714      0.000000000000     -0.142857142857
      0.000000000000      0.428571428571      0.142857142857
      0.142857142857      0.000000000000      0.428571428571
     -0.142857142857     -0.142857142857      0.285714285714
     -0.428571428571     -0.285714285714     -0.428571428571
      0.142857142857      0.428571428571      0.000000000000
      0.285714285714     -0.142857142857     -0.142857142857
     -0.428571428571     -0.428571428571     -0.285714285714
      0.000000000000      0.142857142857      0.428571428571
     -0.142857142857      0.285714285714     -0.142857142857
     -0.285714285714     -0.428571428571     -0.428571428571
      0.428571428571      0.000000000000      0.142857142857
     -0.428571428571     -0.142857142857      0.000000000000
      0.000000000000     -0.428571428571     -0.142857142857
     -0.142857142857      0.000000000000     -0.428571428571
      0.142857142857      0.142857142857     -0.285714285714
      0.428571428571      0.285714285714      0.428571428571
     -0.142857142857     -0.428571428571      0.000000000000
     -0.285714285714      0.142857142857      0.142857142857
      0.428571428571      0.428571428571      0.285714285714
      0.000000000000     -0.142857142857     -0.428571428571
      0.142857142857     -0.285714285714      0.142857142857
      0.285714285714      0.428571428571      0.428571428571
     -0.428571428571      0.000000000000     -0.142857142857
      0.000000000000     -0.428571428571      0.142857142857
      0.142857142857      0.000000000000     -0.428571428571
     -0.142857142857     -0.142857142857     -0.571428571429
      0.428571428571      0.571428571429      0.428571428571
      0.142857142857     -0.428571428571      0.000000000000
     -0.571428571429     -0.142857142857     -0.142857142857
      0.428571428571      0.428571428571      0.571428571429
      0.000000000000      0.142857142857     -0.428571428571
     -0.142857142857     -0.571428571429     -0.142857142857
      0.571428571429      0.428571428571      0.428571428571
     -0.428571428571      0.000000000000      0.142857142857
      0.428571428571     -0.142857142857      0.000000000000
      0.000000000000      0.428571428571     -0.142857142857
     -0.142857142857      0.000000000000      0.428571428571
      0.142857142857      0.142857142857      0.571428571429
     -0.428571428571     -0.571428571429     -0.428571428571
     -0.142857142857      0.428571428571      0.000000000000
      0.571428571429      0.142857142857      0.142857142857
     -0.428571428571     -0.428571428571     -0.571428571429
      0.000000000000     -0.142857142857      0.428571428571
      0.142857142857      0.571428571429      0.142857142857
     -0.571428571429     -0.428571428571     -0.428571428571
      0.428571428571      0.000000000000     -0.142857142857
      0.000000000000     -0.285714285714      0.142857142857
      0.142857142857      0.000000000000     -0.285714285714
     -0.142857142857     -0.142857142857     -0.428571428571
      0.285714285714      0.428571428571      0.285714285714
      0.142857142857     -0.285714285714      0.000000000000
     -0.428571428571     -0.142857142857     -0.142857142857
      0.285714285714      0.285714285714      0.428571428571
      0.000000000000      0.142857142857     -0.285714285714
     -0.142857142857     -0.428571428571     -0.142857142857
      0.428571428571      0.285714285714      0.285714285714
     -0.285714285714      0.000000000000      0.142857142857
      0.285714285714     -0.142857142857      0.000000000000
      0.000000000000      0.285714285714     -0.142857142857
     -0.142857142857      0.000000000000      0.285714285714
      0.142857142857      0.142857142857      0.428571428571
     -0.285714285714     -0.428571428571     -0.285714285714
     -0.142857142857      0.285714285714      0.000000000000
      0.428571428571      0.142857142857      0.142857142857
     -0.285714285714     -0.285714285714     -0.428571428571
      0.000000000000     -0.142857142857      0.285714285714
      0.142857142857      0.428571428571      0.142857142857
     -0.428571428571     -0.285714285714     -0.285714285714
      0.285714285714      0.000000000000     -0.142857142857
      0.000000000000     -0.142857142857      0.142857142857
      0.142857142857      0.000000000000     -0.142857142857
     -0.142857142857     -0.142857142857     -0.285714285714
      0.142857142857      0.285714285714      0.142857142857
      0.142857142857     -0.142857142857      0.000000000000
     -0.285714285714     -0.142857142857     -0.142857142857
      0.142857142857      0.142857142857      0.285714285714
      0.000000000000      0.142857142857     -0.142857142857
     -0.142857142857     -0.285714285714     -0.142857142857
      0.285714285714      0.142857142857      0.142857142857
     -0.142857142857      0.000000000000      0.142857142857
      0.000000000000      0.285714285714      0.285714285714
      0.285714285714      0.000000000000      0.285714285714
     -0.285714285714     -0.285714285714      0.000000000000
     -0.285714285714      0.000000000000     -0.285714285714
      0.000000000000     -0.285714285714     -0.285714285714
      0.000000000000      0.428571428571      0.285714285714
      0.285714285714      0.000000000000      0.428571428571
     -0.285714285714     -0.285714285714      0.142857142857
     -0.428571428571     -0.142857142857     -0.428571428571
      0.285714285714      0.428571428571      0.000000000000
      0.142857142857     -0.285714285714     -0.285714285714
     -0.428571428571     -0.428571428571     -0.142857142857
      0.000000000000      0.285714285714      0.428571428571
     -0.285714285714      0.142857142857     -0.285714285714
     -0.142857142857     -0.428571428571     -0.428571428571
      0.428571428571      0.000000000000      0.285714285714
     -0.428571428571     -0.285714285714      0.000000000000
      0.000000000000     -0.428571428571     -0.285714285714
     -0.285714285714      0.000000000000     -0.428571428571
      0.285714285714      0.285714285714     -0.142857142857
      0.428571428571      0.142857142857      0.428571428571
     -0.285714285714     -0.428571428571      0.000000000000
     -0.142857142857      0.285714285714      0.285714285714
      0.428571428571      0.428571428571      0.142857142857
      0.000000000000     -0.285714285714     -0.428571428571
      0.285714285714     -0.142857142857      0.285714285714
      0.142857142857      0.428571428571      0.428571428571
     -0.428571428571      0.000000000000     -0.285714285714
      0.000000000000     -0.428571428571      0.285714285714
      0.285714285714      0.000000000000     -0.428571428571
     -0.285714285714     -0.285714285714     -0.714285714286
      0.428571428571      0.714285714286      0.428571428571
      0.285714285714     -0.428571428571      0.000000000000
     -0.714285714286     -0.285714285714     -0.285714285714
      0.428571428571      0.428571428571      0.714285714286
      0.000000000000      0.285714285714     -0.428571428571
     -0.285714285714     -0.714285714286     -0.285714285714
      0.714285714286      0.428571428571      0.428571428571
     -0.428571428571      0.000000000000      0.285714285714
      0.428571428571     -0.285714285714      0.000000000000
      0.000000000000      0.428571428571     -0.285714285714
     -0.285714285714      0.000000000000      0.428571428571
      0.285714285714      0.285714285714      0.714285714286
     -0.428571428571     -0.714285714286     -0.428571428571
     -0.285714285714      0.428571428571      0.000000000000
      0.714285714286      0.285714285714      0.285714285714
     -0.428571428571     -0.428571428571     -0.714285714286
      0.000000000000     -0.285714285714      0.428571428571
      0.285714285714      0.714285714286      0.285714285714
     -0.714285714286     -0.428571428571     -0.428571428571
      0.428571428571      0.000000000000     -0.285714285714
      0.000000000000     -0.285714285714      0.285714285714
      0.285714285714      0.000000000000     -0.285714285714
     -0.285714285714     -0.285714285714     -0.571428571429
      0.285714285714      0.571428571429      0.285714285714
      0.285714285714     -0.285714285714      0.000000000000
     -0.571428571429     -0.285714285714     -0.285714285714
      0.285714285714      0.285714285714      0.571428571429
      0.000000000000      0.285714285714     -0.285714285714
     -0.285714285714     -0.571428571429     -0.285714285714
      0.571428571429      0.285714285714      0.285714285714
     -0.285714285714      0.000000000000      0.285714285714
      0.000000000000      0.428571428571      0.428571428571
      0.428571428571      0.000000000000      0.428571428571
     -0.428571428571     -0.428571428571      0.000000000000
     -0.428571428571      0.000000000000     -0.428571428571
      0.000000000000     -0.428571428571     -0.428571428571
      0.000000000000     -0.428571428571      0.428571428571
      0.428571428571      0.000000000000     -0.428571428571
     -0.428571428571     -0.428571428571     -0.857142857143
      0.428571428571      0.857142857143      0.428571428571
      0.428571428571     -0.428571428571      0.000000000000
     -0.857142857143     -0.428571428571     -0.428571428571
      0.428571428571      0.428571428571      0.857142857143
      0.000000000000      0.428571428571     -0.428571428571
     -0.428571428571     -0.857142857143     -0.428571428571
      0.857142857143      0.428571428571      0.428571428571
     -0.428571428571      0.000000000000      0.428571428571
      0.142857142857      0.428571428571      0.285714285714
      0.285714285714      0.142857142857      0.428571428571
     -0.285714285714     -0.142857142857      0.142857142857
     -0.428571428571     -0.142857142857     -0.285714285714
     -0.142857142857      0.285714285714      0.142857142857
      0.142857142857      0.285714285714     -0.142857142857
      0.142857142857     -0.142857142857     -0.285714285714
     -0.285714285714     -0.142857142857     -0.428571428571
     -0.285714285714     -0.428571428571     -0.142857142857
      0.142857142857     -0.142857142857      0.285714285714
      0.142857142857     -0.285714285714     -0.142857142857
     -0.142857142857      0.142857142857      0.285714285714
     -0.285714285714      0.142857142857     -0.142857142857
     -0.428571428571     -0.285714285714     -0.142857142857
     -0.142857142857     -0.285714285714     -0.428571428571
      0.285714285714      0.142857142857     -0.142857142857
     -0.142857142857      0.142857142857     -0.285714285714
      0.285714285714     -0.142857142857      0.142857142857
     -0.142857142857     -0.285714285714      0.142857142857
     -0.142857142857     -0.428571428571     -0.285714285714
      0.428571428571      0.142857142857      0.285714285714
      0.285714285714      0.428571428571      0.142857142857
      0.142857142857      0.285714285714      0.428571428571
      0.142857142857     -0.428571428571      0.285714285714
      0.285714285714      0.142857142857     -0.428571428571
     -0.285714285714     -0.142857142857     -0.714285714286
      0.428571428571      0.714285714286      0.571428571429
     -0.142857142857     -0.571428571429      0.142857142857
      0.142857142857     -0.571428571429     -0.142857142857
     -0.714285714286     -0.142857142857     -0.285714285714
      0.571428571429      0.714285714286      0.428571428571
      0.571428571429      0.428571428571      0.714285714286
      0.142857142857     -0.142857142857     -0.571428571429
     -0.714285714286     -0.285714285714     -0.142857142857
     -0.142857142857      0.142857142857     -0.571428571429
     -0.285714285714     -0.714285714286     -0.142857142857
      0.428571428571      0.571428571429      0.714285714286
      0.714285714286      0.571428571429      0.428571428571
     -0.571428571429      0.142857142857     -0.142857142857
     -0.142857142857     -0.714285714286     -0.285714285714
     -0.571428571429     -0.142857142857      0.142857142857
     -0.142857142857     -0.285714285714     -0.714285714286
      0.714285714286      0.428571428571      0.571428571429
     -0.428571428571      0.142857142857      0.285714285714
      0.285714285714     -0.428571428571      0.142857142857
      0.142857142857      0.285714285714     -0.428571428571
      0.428571428571     -0.285714285714     -0.142857142857
     -0.142857142857      0.428571428571     -0.285714285714
     -0.285714285714     -0.142857142857      0.428571428571
      0.285714285714      0.142857142857      0.714285714286
     -0.428571428571     -0.714285714286     -0.571428571429
      0.142857142857      0.571428571429     -0.142857142857
     -0.142857142857      0.571428571429      0.142857142857
      0.714285714286      0.142857142857      0.285714285714
     -0.571428571429     -0.714285714286     -0.428571428571
     -0.571428571429     -0.428571428571     -0.714285714286
     -0.142857142857      0.142857142857      0.571428571429
      0.714285714286      0.285714285714      0.142857142857
      0.142857142857     -0.142857142857      0.571428571429
      0.285714285714      0.714285714286      0.142857142857
     -0.428571428571     -0.571428571429     -0.714285714286
     -0.714285714286     -0.571428571429     -0.428571428571
      0.571428571429     -0.142857142857      0.142857142857
      0.142857142857      0.714285714286      0.285714285714
      0.571428571429      0.142857142857     -0.142857142857
      0.142857142857      0.285714285714      0.714285714286
     -0.714285714286     -0.428571428571     -0.571428571429
      0.428571428571     -0.142857142857     -0.285714285714
     -0.285714285714      0.428571428571     -0.142857142857
     -0.142857142857     -0.285714285714      0.428571428571
      0.142857142857     -0.428571428571      0.428571428571
      0.428571428571      0.142857142857     -0.428571428571
     -0.428571428571     -0.285714285714     -0.857142857143
      0.428571428571      0.857142857143      0.571428571429
     -0.142857142857     -0.571428571429      0.285714285714
      0.285714285714     -0.571428571429     -0.142857142857
     -0.857142857143     -0.285714285714     -0.428571428571
      0.571428571429      0.857142857143      0.428571428571
      0.571428571429      0.428571428571      0.857142857143
      0.285714285714     -0.142857142857     -0.571428571429
     -0.857142857143     -0.428571428571     -0.285714285714
     -0.142857142857      0.285714285714     -0.571428571429
     -0.428571428571     -0.857142857143     -0.285714285714
      0.428571428571      0.571428571429      0.857142857143
      0.857142857143      0.571428571429      0.428571428571
     -0.571428571429      0.285714285714     -0.142857142857
     -0.285714285714     -0.857142857143     -0.428571428571
     -0.571428571429     -0.142857142857      0.285714285714
     -0.285714285714     -0.428571428571     -0.857142857143
      0.857142857143      0.428571428571      0.571428571429
     -0.428571428571      0.142857142857      0.428571428571
      0.428571428571     -0.428571428571      0.142857142857
      0.142857142857      0.428571428571     -0.428571428571
      0.142857142857     -0.285714285714      0.428571428571
      0.428571428571      0.142857142857     -0.285714285714
     -0.428571428571     -0.285714285714     -0.714285714286
      0.285714285714      0.714285714286      0.428571428571
     -0.142857142857     -0.428571428571      0.285714285714
      0.285714285714     -0.428571428571     -0.142857142857
     -0.714285714286     -0.285714285714     -0.428571428571
      0.428571428571      0.714285714286      0.285714285714
      0.428571428571      0.285714285714      0.714285714286
      0.285714285714     -0.142857142857     -0.428571428571
     -0.714285714286     -0.428571428571     -0.285714285714
     -0.142857142857      0.285714285714     -0.428571428571
     -0.428571428571     -0.714285714286     -0.285714285714
      0.285714285714      0.428571428571      0.714285714286
      0.714285714286      0.428571428571      0.285714285714
     -0.428571428571      0.285714285714     -0.142857142857
     -0.285714285714     -0.714285714286     -0.428571428571
     -0.428571428571     -0.142857142857      0.285714285714
     -0.285714285714     -0.428571428571     -0.714285714286
      0.714285714286      0.285714285714      0.428571428571
     -0.285714285714      0.142857142857      0.428571428571
      0.428571428571     -0.285714285714      0.142857142857
      0.142857142857      0.428571428571     -0.285714285714
end kpoints
